SimulateSamplingPython/aa002ea0f3f64659805448fd34187a98-pulp.mps
*SENSE:Minimize
NAME          MODEL
ROWS
 N  OBJ
 L  C0000000
 L  C0000001
 G  C0000002
 L  C0000003
 L  C0000004
 G  C0000005
 G  C0000006
 G  C0000007
 G  C0000008
COLUMNS
    MARK      'MARKER'                 'INTORG'
    X0000000  C0000001   1.000000000000e+00
    X0000000  C0000002   1.000000000000e+00
    X0000000  C0000003  -3.020000000000e+03
    X0000000  C0000004  -7.087000000000e+03
    X0000000  C0000005  -7.087000000000e+03
    X0000000  C0000006   1.000000000000e+00
    MARK      'MARKER'                 'INTEND'
    MARK      'MARKER'                 'INTORG'
    X0000001  C0000001  -1.000000000000e+00
    X0000001  C0000002  -1.000000000000e+00
    X0000001  C0000003   3.021000000000e+03
    X0000001  C0000004   7.088000000000e+03
    X0000001  C0000005   7.088000000000e+03
    X0000001  C0000007   1.000000000000e+00
    MARK      'MARKER'                 'INTEND'
    MARK      'MARKER'                 'INTORG'
    X0000002  C0000004   1.000000000000e+00
    X0000002  C0000005   1.000000000000e+00
    X0000002  C0000008   1.000000000000e+00
    MARK      'MARKER'                 'INTEND'
    MARK      'MARKER'                 'INTORG'
    X0000003  C0000000   1.000000000000e+00
    X0000003  C0000001  -1.000000000000e+00
    X0000003  C0000002   1.000000000000e+00
    X0000003  C0000003  -1.000000000000e+00
    X0000003  C0000004  -1.000000000000e+00
    X0000003  C0000005   1.000000000000e+00
    X0000003  OBJ        1.000000000000e+00
    MARK      'MARKER'                 'INTEND'
RHS
    RHS       C0000000   0.000000000000e+00
    RHS       C0000001  -2.000000000000e+00
    RHS       C0000002  -2.000000000000e+00
    RHS       C0000003   6.041000000000e+03
    RHS       C0000004   1.416600000000e+04
    RHS       C0000005   1.416600000000e+04
    RHS       C0000006  -2.147483648000e+09
    RHS       C0000007  -2.147483648000e+09
    RHS       C0000008  -2.147483648000e+09
BOUNDS
 LO BND       X0000000  -1.957562960320e+08
 UP BND       X0000000   8.772397561044e+08
 LO BND       X0000001  -3.664066820257e+08
 UP BND       X0000001   1.179941643718e+09
 LO BND       X0000002  -7.527520457651e+08
 UP BND       X0000002   1.860370198144e+09
 FR BND       X0000003
ENDATA
