SimulateSamplingPython/aa002ea0f3f64659805448fd34187a98-pulp.sol
Optimal - objective value 0.00000000
      0 C0000000               0                       0
      1 C0000001      -2.0000001                       0
      2 C0000002      -2.0000001                       0
      3 C0000003 -1.9575025e+008                       0
**       4 C0000004           14166          -1.187787e+008
      5 C0000005           14166                       0
      6 C0000006  -1.957563e+008                       0
      7 C0000007 -1.9575629e+008                       0
      8 C0000008  1.9575629e+008                       0
      0 X0000000  -1.957563e+008         -8.4178467e+011
      1 X0000001 -1.9575629e+008          8.4190345e+011
      2 X0000002  1.9575629e+008           1.187787e+008
      3 X0000003               0          -1.187787e+008
